p cnf 91 782
-22 -23 0
-22 -24 0
-22 -25 0
-22 -26 0
-22 -27 0
-22 -28 0
-23 -24 0
-23 -25 0
-23 -26 0
-23 -27 0
-23 -28 0
-24 -25 0
-24 -26 0
-24 -27 0
-24 -28 0
-25 -26 0
-25 -27 0
-25 -28 0
-26 -27 0
-26 -28 0
-27 -28 0
22 23 24 25 26 27 28 0
-29 -30 0
-29 -31 0
-29 -32 0
-29 -33 0
-29 -34 0
-29 -35 0
-30 -31 0
-30 -32 0
-30 -33 0
-30 -34 0
-30 -35 0
-31 -32 0
-31 -33 0
-31 -34 0
-31 -35 0
-32 -33 0
-32 -34 0
-32 -35 0
-33 -34 0
-33 -35 0
-34 -35 0
29 30 31 32 33 34 35 0
-36 -37 0
-36 -38 0
-36 -39 0
-36 -40 0
-36 -41 0
-36 -42 0
-37 -38 0
-37 -39 0
-37 -40 0
-37 -41 0
-37 -42 0
-38 -39 0
-38 -40 0
-38 -41 0
-38 -42 0
-39 -40 0
-39 -41 0
-39 -42 0
-40 -41 0
-40 -42 0
-41 -42 0
36 37 38 39 40 41 42 0
-43 -44 0
-43 -45 0
-43 -46 0
-43 -47 0
-43 -48 0
-43 -49 0
-44 -45 0
-44 -46 0
-44 -47 0
-44 -48 0
-44 -49 0
-45 -46 0
-45 -47 0
-45 -48 0
-45 -49 0
-46 -47 0
-46 -48 0
-46 -49 0
-47 -48 0
-47 -49 0
-48 -49 0
43 44 45 46 47 48 49 0
-50 -51 0
-50 -52 0
-50 -53 0
-50 -54 0
-50 -55 0
-50 -56 0
-51 -52 0
-51 -53 0
-51 -54 0
-51 -55 0
-51 -56 0
-52 -53 0
-52 -54 0
-52 -55 0
-52 -56 0
-53 -54 0
-53 -55 0
-53 -56 0
-54 -55 0
-54 -56 0
-55 -56 0
50 51 52 53 54 55 56 0
-22 -29 0
-22 -36 0
-22 -43 0
-22 -50 0
-29 -36 0
-29 -43 0
-29 -50 0
-36 -43 0
-36 -50 0
-43 -50 0
-23 -30 0
-23 -37 0
-23 -44 0
-23 -51 0
-30 -37 0
-30 -44 0
-30 -51 0
-37 -44 0
-37 -51 0
-44 -51 0
-24 -31 0
-24 -38 0
-24 -45 0
-24 -52 0
-31 -38 0
-31 -45 0
-31 -52 0
-38 -45 0
-38 -52 0
-45 -52 0
-25 -32 0
-25 -39 0
-25 -46 0
-25 -53 0
-32 -39 0
-32 -46 0
-32 -53 0
-39 -46 0
-39 -53 0
-46 -53 0
-26 -33 0
-26 -40 0
-26 -47 0
-26 -54 0
-33 -40 0
-33 -47 0
-33 -54 0
-40 -47 0
-40 -54 0
-47 -54 0
-27 -34 0
-27 -41 0
-27 -48 0
-27 -55 0
-34 -41 0
-34 -48 0
-34 -55 0
-41 -48 0
-41 -55 0
-48 -55 0
-28 -35 0
-28 -42 0
-28 -49 0
-28 -56 0
-35 -42 0
-35 -49 0
-35 -56 0
-42 -49 0
-42 -56 0
-49 -56 0
1 -22 -30 0
1 -22 -37 0
1 -22 -44 0
1 -22 -51 0
1 -29 -23 0
1 -29 -37 0
1 -29 -44 0
1 -29 -51 0
1 -36 -23 0
1 -36 -30 0
1 -36 -44 0
1 -36 -51 0
1 -43 -23 0
1 -43 -30 0
1 -43 -37 0
1 -43 -51 0
1 -50 -23 0
1 -50 -30 0
1 -50 -37 0
1 -50 -44 0
2 -22 -31 0
2 -22 -38 0
2 -22 -45 0
2 -22 -52 0
2 -29 -24 0
2 -29 -38 0
2 -29 -45 0
2 -29 -52 0
2 -36 -24 0
2 -36 -31 0
2 -36 -45 0
2 -36 -52 0
2 -43 -24 0
2 -43 -31 0
2 -43 -38 0
2 -43 -52 0
2 -50 -24 0
2 -50 -31 0
2 -50 -38 0
2 -50 -45 0
3 -22 -32 0
3 -22 -39 0
3 -22 -46 0
3 -22 -53 0
3 -29 -25 0
3 -29 -39 0
3 -29 -46 0
3 -29 -53 0
3 -36 -25 0
3 -36 -32 0
3 -36 -46 0
3 -36 -53 0
3 -43 -25 0
3 -43 -32 0
3 -43 -39 0
3 -43 -53 0
3 -50 -25 0
3 -50 -32 0
3 -50 -39 0
3 -50 -46 0
4 -22 -33 0
4 -22 -40 0
4 -22 -47 0
4 -22 -54 0
4 -29 -26 0
4 -29 -40 0
4 -29 -47 0
4 -29 -54 0
4 -36 -26 0
4 -36 -33 0
4 -36 -47 0
4 -36 -54 0
4 -43 -26 0
4 -43 -33 0
4 -43 -40 0
4 -43 -54 0
4 -50 -26 0
4 -50 -33 0
4 -50 -40 0
4 -50 -47 0
5 -22 -34 0
5 -22 -41 0
5 -22 -48 0
5 -22 -55 0
5 -29 -27 0
5 -29 -41 0
5 -29 -48 0
5 -29 -55 0
5 -36 -27 0
5 -36 -34 0
5 -36 -48 0
5 -36 -55 0
5 -43 -27 0
5 -43 -34 0
5 -43 -41 0
5 -43 -55 0
5 -50 -27 0
5 -50 -34 0
5 -50 -41 0
5 -50 -48 0
6 -22 -35 0
6 -22 -42 0
6 -22 -49 0
6 -22 -56 0
6 -29 -28 0
6 -29 -42 0
6 -29 -49 0
6 -29 -56 0
6 -36 -28 0
6 -36 -35 0
6 -36 -49 0
6 -36 -56 0
6 -43 -28 0
6 -43 -35 0
6 -43 -42 0
6 -43 -56 0
6 -50 -28 0
6 -50 -35 0
6 -50 -42 0
6 -50 -49 0
7 -23 -31 0
7 -23 -38 0
7 -23 -45 0
7 -23 -52 0
7 -30 -24 0
7 -30 -38 0
7 -30 -45 0
7 -30 -52 0
7 -37 -24 0
7 -37 -31 0
7 -37 -45 0
7 -37 -52 0
7 -44 -24 0
7 -44 -31 0
7 -44 -38 0
7 -44 -52 0
7 -51 -24 0
7 -51 -31 0
7 -51 -38 0
7 -51 -45 0
8 -23 -32 0
8 -23 -39 0
8 -23 -46 0
8 -23 -53 0
8 -30 -25 0
8 -30 -39 0
8 -30 -46 0
8 -30 -53 0
8 -37 -25 0
8 -37 -32 0
8 -37 -46 0
8 -37 -53 0
8 -44 -25 0
8 -44 -32 0
8 -44 -39 0
8 -44 -53 0
8 -51 -25 0
8 -51 -32 0
8 -51 -39 0
8 -51 -46 0
9 -23 -33 0
9 -23 -40 0
9 -23 -47 0
9 -23 -54 0
9 -30 -26 0
9 -30 -40 0
9 -30 -47 0
9 -30 -54 0
9 -37 -26 0
9 -37 -33 0
9 -37 -47 0
9 -37 -54 0
9 -44 -26 0
9 -44 -33 0
9 -44 -40 0
9 -44 -54 0
9 -51 -26 0
9 -51 -33 0
9 -51 -40 0
9 -51 -47 0
10 -23 -34 0
10 -23 -41 0
10 -23 -48 0
10 -23 -55 0
10 -30 -27 0
10 -30 -41 0
10 -30 -48 0
10 -30 -55 0
10 -37 -27 0
10 -37 -34 0
10 -37 -48 0
10 -37 -55 0
10 -44 -27 0
10 -44 -34 0
10 -44 -41 0
10 -44 -55 0
10 -51 -27 0
10 -51 -34 0
10 -51 -41 0
10 -51 -48 0
11 -23 -35 0
11 -23 -42 0
11 -23 -49 0
11 -23 -56 0
11 -30 -28 0
11 -30 -42 0
11 -30 -49 0
11 -30 -56 0
11 -37 -28 0
11 -37 -35 0
11 -37 -49 0
11 -37 -56 0
11 -44 -28 0
11 -44 -35 0
11 -44 -42 0
11 -44 -56 0
11 -51 -28 0
11 -51 -35 0
11 -51 -42 0
11 -51 -49 0
12 -24 -32 0
12 -24 -39 0
12 -24 -46 0
12 -24 -53 0
12 -31 -25 0
12 -31 -39 0
12 -31 -46 0
12 -31 -53 0
12 -38 -25 0
12 -38 -32 0
12 -38 -46 0
12 -38 -53 0
12 -45 -25 0
12 -45 -32 0
12 -45 -39 0
12 -45 -53 0
12 -52 -25 0
12 -52 -32 0
12 -52 -39 0
12 -52 -46 0
13 -24 -33 0
13 -24 -40 0
13 -24 -47 0
13 -24 -54 0
13 -31 -26 0
13 -31 -40 0
13 -31 -47 0
13 -31 -54 0
13 -38 -26 0
13 -38 -33 0
13 -38 -47 0
13 -38 -54 0
13 -45 -26 0
13 -45 -33 0
13 -45 -40 0
13 -45 -54 0
13 -52 -26 0
13 -52 -33 0
13 -52 -40 0
13 -52 -47 0
14 -24 -34 0
14 -24 -41 0
14 -24 -48 0
14 -24 -55 0
14 -31 -27 0
14 -31 -41 0
14 -31 -48 0
14 -31 -55 0
14 -38 -27 0
14 -38 -34 0
14 -38 -48 0
14 -38 -55 0
14 -45 -27 0
14 -45 -34 0
14 -45 -41 0
14 -45 -55 0
14 -52 -27 0
14 -52 -34 0
14 -52 -41 0
14 -52 -48 0
15 -24 -35 0
15 -24 -42 0
15 -24 -49 0
15 -24 -56 0
15 -31 -28 0
15 -31 -42 0
15 -31 -49 0
15 -31 -56 0
15 -38 -28 0
15 -38 -35 0
15 -38 -49 0
15 -38 -56 0
15 -45 -28 0
15 -45 -35 0
15 -45 -42 0
15 -45 -56 0
15 -52 -28 0
15 -52 -35 0
15 -52 -42 0
15 -52 -49 0
16 -25 -33 0
16 -25 -40 0
16 -25 -47 0
16 -25 -54 0
16 -32 -26 0
16 -32 -40 0
16 -32 -47 0
16 -32 -54 0
16 -39 -26 0
16 -39 -33 0
16 -39 -47 0
16 -39 -54 0
16 -46 -26 0
16 -46 -33 0
16 -46 -40 0
16 -46 -54 0
16 -53 -26 0
16 -53 -33 0
16 -53 -40 0
16 -53 -47 0
17 -25 -34 0
17 -25 -41 0
17 -25 -48 0
17 -25 -55 0
17 -32 -27 0
17 -32 -41 0
17 -32 -48 0
17 -32 -55 0
17 -39 -27 0
17 -39 -34 0
17 -39 -48 0
17 -39 -55 0
17 -46 -27 0
17 -46 -34 0
17 -46 -41 0
17 -46 -55 0
17 -53 -27 0
17 -53 -34 0
17 -53 -41 0
17 -53 -48 0
18 -25 -35 0
18 -25 -42 0
18 -25 -49 0
18 -25 -56 0
18 -32 -28 0
18 -32 -42 0
18 -32 -49 0
18 -32 -56 0
18 -39 -28 0
18 -39 -35 0
18 -39 -49 0
18 -39 -56 0
18 -46 -28 0
18 -46 -35 0
18 -46 -42 0
18 -46 -56 0
18 -53 -28 0
18 -53 -35 0
18 -53 -42 0
18 -53 -49 0
19 -26 -34 0
19 -26 -41 0
19 -26 -48 0
19 -26 -55 0
19 -33 -27 0
19 -33 -41 0
19 -33 -48 0
19 -33 -55 0
19 -40 -27 0
19 -40 -34 0
19 -40 -48 0
19 -40 -55 0
19 -47 -27 0
19 -47 -34 0
19 -47 -41 0
19 -47 -55 0
19 -54 -27 0
19 -54 -34 0
19 -54 -41 0
19 -54 -48 0
20 -26 -35 0
20 -26 -42 0
20 -26 -49 0
20 -26 -56 0
20 -33 -28 0
20 -33 -42 0
20 -33 -49 0
20 -33 -56 0
20 -40 -28 0
20 -40 -35 0
20 -40 -49 0
20 -40 -56 0
20 -47 -28 0
20 -47 -35 0
20 -47 -42 0
20 -47 -56 0
20 -54 -28 0
20 -54 -35 0
20 -54 -42 0
20 -54 -49 0
21 -27 -35 0
21 -27 -42 0
21 -27 -49 0
21 -27 -56 0
21 -34 -28 0
21 -34 -42 0
21 -34 -49 0
21 -34 -56 0
21 -41 -28 0
21 -41 -35 0
21 -41 -49 0
21 -41 -56 0
21 -48 -28 0
21 -48 -35 0
21 -48 -42 0
21 -48 -56 0
21 -55 -28 0
21 -55 -35 0
21 -55 -42 0
21 -55 -49 0
-57 -58 0
-57 -59 0
-57 -60 0
-57 -61 0
-58 -59 0
-58 -60 0
-58 -61 0
-59 -60 0
-59 -61 0
-60 -61 0
57 58 59 60 61 0
-62 -63 0
-62 -64 0
-62 -65 0
-62 -66 0
-63 -64 0
-63 -65 0
-63 -66 0
-64 -65 0
-64 -66 0
-65 -66 0
62 63 64 65 66 0
-67 -68 0
-67 -69 0
-67 -70 0
-67 -71 0
-68 -69 0
-68 -70 0
-68 -71 0
-69 -70 0
-69 -71 0
-70 -71 0
67 68 69 70 71 0
-72 -73 0
-72 -74 0
-72 -75 0
-72 -76 0
-73 -74 0
-73 -75 0
-73 -76 0
-74 -75 0
-74 -76 0
-75 -76 0
72 73 74 75 76 0
-77 -78 0
-77 -79 0
-77 -80 0
-77 -81 0
-78 -79 0
-78 -80 0
-78 -81 0
-79 -80 0
-79 -81 0
-80 -81 0
77 78 79 80 81 0
-82 -83 0
-82 -84 0
-82 -85 0
-82 -86 0
-83 -84 0
-83 -85 0
-83 -86 0
-84 -85 0
-84 -86 0
-85 -86 0
82 83 84 85 86 0
-87 -88 0
-87 -89 0
-87 -90 0
-87 -91 0
-88 -89 0
-88 -90 0
-88 -91 0
-89 -90 0
-89 -91 0
-90 -91 0
87 88 89 90 91 0
-1 -57 -62 0
-1 -58 -63 0
-1 -59 -64 0
-1 -60 -65 0
-1 -61 -66 0
-2 -57 -67 0
-2 -58 -68 0
-2 -59 -69 0
-2 -60 -70 0
-2 -61 -71 0
-3 -57 -72 0
-3 -58 -73 0
-3 -59 -74 0
-3 -60 -75 0
-3 -61 -76 0
-4 -57 -77 0
-4 -58 -78 0
-4 -59 -79 0
-4 -60 -80 0
-4 -61 -81 0
-5 -57 -82 0
-5 -58 -83 0
-5 -59 -84 0
-5 -60 -85 0
-5 -61 -86 0
-6 -57 -87 0
-6 -58 -88 0
-6 -59 -89 0
-6 -60 -90 0
-6 -61 -91 0
-7 -62 -67 0
-7 -63 -68 0
-7 -64 -69 0
-7 -65 -70 0
-7 -66 -71 0
-8 -62 -72 0
-8 -63 -73 0
-8 -64 -74 0
-8 -65 -75 0
-8 -66 -76 0
-9 -62 -77 0
-9 -63 -78 0
-9 -64 -79 0
-9 -65 -80 0
-9 -66 -81 0
-10 -62 -82 0
-10 -63 -83 0
-10 -64 -84 0
-10 -65 -85 0
-10 -66 -86 0
-11 -62 -87 0
-11 -63 -88 0
-11 -64 -89 0
-11 -65 -90 0
-11 -66 -91 0
-12 -67 -72 0
-12 -68 -73 0
-12 -69 -74 0
-12 -70 -75 0
-12 -71 -76 0
-13 -67 -77 0
-13 -68 -78 0
-13 -69 -79 0
-13 -70 -80 0
-13 -71 -81 0
-14 -67 -82 0
-14 -68 -83 0
-14 -69 -84 0
-14 -70 -85 0
-14 -71 -86 0
-15 -67 -87 0
-15 -68 -88 0
-15 -69 -89 0
-15 -70 -90 0
-15 -71 -91 0
-16 -72 -77 0
-16 -73 -78 0
-16 -74 -79 0
-16 -75 -80 0
-16 -76 -81 0
-17 -72 -82 0
-17 -73 -83 0
-17 -74 -84 0
-17 -75 -85 0
-17 -76 -86 0
-18 -72 -87 0
-18 -73 -88 0
-18 -74 -89 0
-18 -75 -90 0
-18 -76 -91 0
-19 -77 -82 0
-19 -78 -83 0
-19 -79 -84 0
-19 -80 -85 0
-19 -81 -86 0
-20 -77 -87 0
-20 -78 -88 0
-20 -79 -89 0
-20 -80 -90 0
-20 -81 -91 0
-21 -82 -87 0
-21 -83 -88 0
-21 -84 -89 0
-21 -85 -90 0
-21 -86 -91 0